eprime_models/quasigroup/quasigroupOcc.param.solution
language ESSENCE' 1.0
$ Minion SolverNodes: 1
$ Minion SolverTotalTime: 0.024105
$ Minion SolverTimeOut: 0
$ Savile Row TotalTime: 0.096
letting puzzle be 
[[
[1, 0, 0, 0], 
[0, 1, 0, 0], 
[0, 0, 1, 0], 
[0, 0, 0, 1]],

[[0, 0, 0, 1], 
[1, 0, 0, 0], 
[0, 1, 0, 0], 
[0, 0, 1, 0]], 

[[0, 0, 1, 0], 
[0, 0, 0, 1], 
[1, 0, 0, 0], 
[0, 1, 0, 0]], 

[[0, 1, 0, 0], 
[0, 0, 1, 0], 
[0, 0, 0, 1], 
[1, 0, 0, 0]]]
